# Candidate Points
# Name,P1 - rotor_thickness (mm) ,P2 - rotor_OD (mm) ,P3 - rotor_ID (mm) ,P4 - Equivalent Stress Maximum (Pa) ,P5 - Total Deformation Reported Frequency (Hz) ,P7 - Solid Volume (m^3) ,P8 - Temperature Maximum (C) 
Name,P1,P2,P3,P4,P5,P7,P8
Candidate Point 1,15.463118409277584,124.20464901164731,81.145923613785314,11304181.138356496,1352.3570926327857,0.0006626498214819896,399.97858273916512
Candidate Point 1 (verified),15.463118409277584,124.20464901164731,81.145923613785314,11471605.232488433,1350.0950705489952,0.00066264464524843367,401.28744506835938
Candidate Point 2,15.530977302464187,124.08620844271719,81.26850248304504,11313421.148097957,1351.6561796161177,0.00066256930489511459,399.73580936163137
Candidate Point 2 (verified),15.530977302464187,124.08620844271719,81.26850248304504,11496868.44521692,1349.75959705071,0.00066257092078008924,400.66156005859375
Candidate Point 3,15.466602468876001,124.32044096613697,80.374375542704939,11276720.483241199,1364.6510312595642,0.00066741700597889415,399.33724585670853
Candidate Point 3 (verified),15.466602468876001,124.32044096613697,80.374375542704939,11194720.146703718,1363.7840350431229,0.0006673890953376578,400.86074829101563
